n_res = 4;
rc = [ 0, 0, 0, 0 ];
n_tasks = 30;
d = [ 9, 8, 1, 6, 6, 5, 6, 8, 1, 6, 8, 2, 5, 5, 5, 7, 9, 5, 6, 1, 8, 2, 6, 9, 10, 2, 4, 6, 3, 4 ];
rr = [| 0, 0, 0, 0, 0, 0, 0, 0, 0, 0, 0, 0, 0, 0, 0, 0, 0, 0, 0, 0, 0, 0, 0, 0, 0, 0, 0, 0, 0, 0
      | 0, 0, 0, 0, 0, 0, 0, 0, 0, 0, 0, 0, 0, 0, 0, 0, 0, 0, 0, 0, 0, 0, 0, 0, 0, 0, 0, 0, 0, 0
      | 0, 0, 0, 0, 0, 0, 0, 0, 0, 0, 0, 0, 0, 0, 0, 0, 0, 0, 0, 0, 0, 0, 0, 0, 0, 0, 0, 0, 0, 0
      | 0, 0, 0, 0, 0, 0, 0, 0, 0, 0, 0, 0, 0, 0, 0, 0, 0, 0, 0, 0, 0, 0, 0, 0, 0, 0, 0, 0, 0, 0 |];
suc = [ { 4, 7, 15 },
       { 5, 11, 13 },
       { 8, 9, 24 },
       { 6 },
       { 18, 26 },
       { 10, 16, 25 },
       { 29 },
       { 12 },
       { 13, 17, 19 },
       { 22 },
       { 20 },
       { 18, 30 },
       { 14, 23 },
       { 26 },
       { 17 },
       { 21, 27 },
       { 26 },
       { 29 },
       { 28 },
       { 21 },
       { 28 },
       { 30 },
       { 25, 27 },
       { 27 },
       { 28 },
       { 29 },
       { 30 },
       {  },
       {  },
       {  } ];
